(set-option :print-success false)
(set-logic QF_UF)
(declare-sort x34 0)
(declare-sort x96 0)
(declare-sort x86 0)
(declare-sort x24 0)
(declare-fun x35 () x96)
(declare-fun x41 () Bool)
(declare-fun x46 () x96)
(declare-fun x54 () Bool)
(declare-fun x31 () Bool)
(declare-fun x89 () x96)
(declare-fun x98 (x96) x34)
(declare-fun x36 () x96)
(declare-fun x79 () Bool)
(declare-fun x43 () x96)
(declare-fun x58 () Bool)
(declare-fun x51 () Bool)
(declare-fun x32 () x24)
(declare-fun x103 () Bool)
(declare-fun x1 () x34)
(declare-fun x5 (x96) Bool)
(declare-fun x75 () Bool)
(declare-fun x76 () Bool)
(declare-fun x60 () Bool)
(declare-fun x102 () x34)
(declare-fun x55 () Bool)
(declare-fun x105 () Bool)
(declare-fun x3 () x34)
(declare-fun x61 () x96)
(declare-fun x2 () Bool)
(declare-fun x56 () Bool)
(declare-fun x29 () x34)
(declare-fun x66 () Bool)
(declare-fun x8 () Bool)
(declare-fun x93 () Bool)
(declare-fun x7 () Bool)
(declare-fun x15 () x24)
(declare-fun x28 () Bool)
(declare-fun x106 () x34)
(declare-fun x38 () Bool)
(declare-fun x84 () Bool)
(declare-fun x23 () Bool)
(declare-fun x81 () Bool)
(declare-fun x65 () Bool)
(declare-fun x33 () x86)
(declare-fun x11 () Bool)
(declare-fun x20 (x96) x34)
(declare-fun x97 () Bool)
(declare-fun x94 () x34)
(declare-fun x92 () x24)
(declare-fun x107 () Bool)
(declare-fun x47 () Bool)
(declare-fun x37 () Bool)
(declare-fun x18 (x34 Bool) x96)
(declare-fun x13 () x96)
(declare-fun x25 () Bool)
(declare-fun x82 () Bool)
(declare-fun x27 () Bool)
(declare-fun x100 () Bool)
(declare-fun x59 () Bool)
(declare-fun x16 () Bool)
(declare-fun x21 (x96) Bool)
(declare-fun x49 () x34)
(declare-fun x30 () Bool)
(declare-fun x6 (Bool x34) x96)
(declare-fun x4 () Bool)
(declare-fun x85 () Bool)
(declare-fun x48 () Bool)
(declare-fun x73 () Bool)
(declare-fun x44 () Bool)
(declare-fun x72 () Bool)
(declare-fun x74 () x96)
(declare-fun x17 () x96)
(declare-fun x78 () Bool)
(declare-fun x80 () x96)
(declare-fun x10 () x24)
(declare-fun x42 () Bool)
(declare-fun x70 () Bool)
(declare-fun x26 () Bool)
(declare-fun x77 () Bool)
(declare-fun x19 () Bool)
(declare-fun x101 () x96)
(declare-fun x99 () Bool)
(declare-fun x68 () Bool)
(declare-fun x45 () x96)
(declare-fun x104 () x34)
(declare-fun x50 () x24)
(declare-fun x22 () Bool)
(declare-fun x83 (x96 x86) x24)
(declare-fun x40 () x96)
(declare-fun x67 () Bool)
(declare-fun x90 () Bool)
(declare-fun x63 () Bool)
(declare-fun x12 () x34)
(declare-fun x53 () x24)
(declare-fun x88 () Bool)
(declare-fun x95 () x96)
(declare-fun x64 () x96)
(declare-fun x9 () Bool)
(declare-fun x69 () Bool)
(declare-fun x52 () Bool)
(declare-fun x57 () Bool)
(declare-fun x39 (x24 x24) Bool)
(declare-fun x14 () x24)
(declare-fun x62 () x96)
(declare-fun x91 () Bool)
(declare-fun x71 () Bool)
(declare-fun x87 () x24)
(assert (= (not x27) x100))
(assert (= (x21 x45) x48))
(assert (= (= x43 x46) x41))
(assert (= x37 (not x4)))
(assert (= x79 (not x25)))
(assert (= (and x77 x52) x31))
(assert (= (not x9) x85))
(assert (= (not (= x13 x17)) x66))
(assert (= x3 (x98 x13)))
(assert (distinct x14 x32 x50))
(assert (= (not (= x87 x32)) x11))
(assert (= (x39 x87 x32) x26))
(assert (= (x83 x46 x33) x87))
(assert (= x75 (= x26 x88)))
(assert (= (not (= x13 x101)) x65))
(assert (= x1 (x98 x36)))
(assert (= x92 (x83 x45 x33)))
(assert (= x43 (x18 x1 x22)))
(assert (= x8 (not (= x32 x92))))
(assert (= x104 (x20 x45)))
(assert (= x41 (= x46 x43)))
(assert (= (not x58) x91))
(assert (= x85 (x5 x13)))
(assert x9)
(assert (= (not x77) x26))
(assert (= (x98 x36) x1))
(assert (= x60 (= x92 x32)))
(assert (distinct x61 x64 x95 x40))
(assert (distinct x29 x94 x49))
(assert (distinct x14 x50 x32))
(assert (= (and x93 x11) x100))
(assert x44)
(assert (distinct x14 x15 x32 x50))
(assert (= (x18 x1 x22) x43))
(assert (= x79 (and x60 x58)))
(assert (= (and x41 x11 x105) x2))
(assert (= (= x91 x28) x23))
(assert (= (not x44) x2))
(assert (= (= x101 x36) x105))
(assert (= x93 (= x46 x64)))
(assert (= (= x74 x13) x82))
(assert (= (not x99) x55))
(assert (= (= x61 x36) x78))
(assert (= x22 (x5 x36)))
(assert x82)
(assert (= (and x68 x25 x4 x28 x99 x78 x23 x70 x27 x75) x16))
(assert (= (x39 x92 x32) x91))
(assert (= (x83 x46 x33) x87))
(assert (distinct x61 x95 x64 x101 x40 x80))
(assert (distinct x64 x40 x61 x95))
(assert (= x55 (and x78 x41 x77)))
(assert (= (x5 x36) x22))
(assert (= x68 (= x45 x64)))
(assert (= x52 (= x87 x32)))
(assert (= x11 (not (= x32 x87))))
(assert x66)
(assert x16)
(assert (= (not x70) x31))
(assert (= (x18 x3 x85) x17))
(assert x65)
(assert (= (x6 x48 x104) x74))
(assert (= x37 (and x68 x8)))
(check-sat)
(exit)
